submitit INFO (2023-04-30 19:21:47,027) - Starting with JobEnvironment(job_id=27536, hostname=cpunode25, local_rank=4(5), node=0(1), global_rank=4(5))
submitit INFO (2023-04-30 19:21:47,027) - Loading pickle: /h/30/pashootan/Matrix-Mult-CP/src/../logs/2x2x2_6_Apr30_19:21:44/27536_submitted.pkl
 ! --------------------------------------------------- CP Optimizer 22.1.1.0 --
 ! Satisfiability problem - 72 variables, 117 constraints
 ! TimeLimit            = 7200
 ! Workers              = 8
 ! LogPeriod            = 10000000
 ! RandomSeed           = 9671
 ! Initial process time : 0.00s (0.00s extraction + 0.00s propagation)
 !  . Log search space  : 107.1 (before), 107.1 (after)
 !  . Memory usage      : 495.1 kB (before), 495.1 kB (after)
 ! Using parallel search with 8 workers.
 ! ----------------------------------------------------------------------------
 !               Branches  Non-fixed    W       Branch decision
                   10000k          6    6         1  = U4_2
                   10000k          6    1         1  = U2_1
                   10000k          5    4   F     0 != V1_0
                   10000k          6    5   F     1  = V4_0
                   10000k          6    2         1  = V4_0
                   10000k          6    8   F    -1  = W3_1
                   10000k          6    3   F    -1  = W5_1
                   10000k          6    7        -1  = W2_1
                   20000k          6    4         0  = V3_0
                   20000k          6    1   F    -1  = W3_1
                   20000k          6    6        -1 != W3_0
                   20000k          6    2         1  = V0_0
                   20000k          6    5   F    -1 != W4_1
                   20000k          6    8   F    -1  = W0_1
                   20000k          8    7         1 != V3_2
                   20000k          7    3        -1  = V4_0
                   30000k          6    2   F     1 != U2_2
                   30000k          6    4         1 != V0_2
                   30000k          6    5         0  = V4_0
                   30000k          6    1         0 != V4_0
 ! Time = 338.89s, Average fail depth = 19, Memory usage = 140.3 MB
 !               Branches  Non-fixed    W       Branch decision
                   30000k          6    6        -1 != V4_1
                   30000k          8    3         1 != V0_1
                   30000k          6    8   F     0  = V4_0
                   30000k          6    7         0 != V2_2
                   40000k          6    2         1  = V0_2
                   40000k          6    4   F     0 != U1_2
                   40000k          6    5         0 != V4_1
                   40000k          7    6         1  = V4_3
                   40000k          7    1         0 != V5_0
                   40000k          9    3         0 != W0_1
                   40000k          6    8        -1 != V2_1
                   40000k          8    7   F    -1  = V5_2
 ! ----------------------------------------------------------------------------
 ! Search completed, model has no solution.
 ! ----------------------------------------------------------------------------
 ! Number of branches     : 375724110
 ! Number of fails        : 185362529
 ! Total memory usage     : 225.4 MB (225.4 MB CP Optimizer + 0.0 MB Concert)
 ! Time spent in solve    : 528.61s (528.61s engine + 0.00s extraction)
 ! Search speed (br. / s) : 710777.5
 ! ----------------------------------------------------------------------------
Infeasible
Saving stats to: /h/30/pashootan/Matrix-Mult-CP/logs/2x2x2_6_Apr30_19:21:44/27536_4_stats.csv
submitit INFO (2023-04-30 19:30:36,181) - Job completed successfully
